This is Ipopt version 3.14.11, running with linear solver MUMPS 5.4.1.

Number of nonzeros in equality constraint Jacobian...:   586768
Number of nonzeros in inequality constraint Jacobian.:        0
Number of nonzeros in Lagrangian Hessian.............:        0

Total number of variables............................:      868
                     variables with only lower bounds:        0
                variables with lower and upper bounds:      205
                     variables with only upper bounds:        0
Total number of equality constraints.................:      676
Total number of inequality constraints...............:        0
        inequality constraints with only lower bounds:        0
   inequality constraints with lower and upper bounds:        0
        inequality constraints with only upper bounds:        0

iter    objective    inf_pr   inf_du lg(mu)  ||d||  lg(rg) alpha_du alpha_pr  ls
   0  3.0000000e+00 6.00e+00 1.00e+00   0.0 0.00e+00    -  0.00e+00 0.00e+00   0
   1  2.3225813e+00 5.10e-01 2.20e+02  -5.3 6.00e+00    -  7.34e-01 1.00e+00h  1
   2  2.6022066e+00 2.32e-01 6.39e+01  -0.3 2.57e+00    -  9.94e-01 1.00e+00f  1
   3  2.5699575e+00 4.34e-03 3.38e+00  -0.9 2.58e-01    -  9.98e-01 1.00e+00h  1
   4  2.5136816e+00 4.64e-03 2.11e+00  -2.1 3.27e-01    -  9.94e-01 1.00e+00h  1
   5  4.4296465e-01 5.65e+00 2.62e+02  -1.5 3.23e+01    -  1.00e+00 3.70e-01f  1
   6  5.5993966e-01 5.43e+00 2.25e+02  -0.1 6.90e+01    -  1.00e+00 1.04e-01f  1
   7  6.9431396e-01 4.64e+00 1.38e+02   0.8 4.86e+01    -  8.28e-01 1.06e-01h  1
   8  1.1699866e+00 3.42e+00 2.35e+03   0.9 1.37e+01    -  7.44e-01 3.81e-01h  1
   9  2.1675680e+00 2.31e+00 3.72e+02   1.3 4.87e+00    -  9.52e-01 1.00e+00f  1
iter    objective    inf_pr   inf_du lg(mu)  ||d||  lg(rg) alpha_du alpha_pr  ls
  10  2.1245368e+00 3.69e-02 1.01e+02   0.7 2.70e+00    -  9.61e-01 1.00e+00f  1
  11  2.1610869e+00 1.38e-03 1.41e+00  -0.5 2.09e-01    -  9.98e-01 1.00e+00h  1
  12  2.1601146e+00 2.18e-06 2.70e-02  -2.6 9.49e-03    -  9.95e-01 1.00e+00h  1
  13  7.1743077e-01 3.08e+00 1.02e+04  -8.4 2.52e+01    -  2.77e-01 3.20e-01f  1
  14  1.4331707e+00 8.47e-01 5.31e+03  -2.4 4.53e+00    -  1.00e+00 1.00e+00h  1
  15  1.5688063e+00 1.15e-01 2.33e+03  -2.5 3.29e+00    -  1.00e+00 9.05e-01h  1
  16  1.5818172e+00 9.00e-04 2.60e+01  -3.0 2.06e-01    -  1.00e+00 1.00e+00h  1
  17  1.5816597e+00 1.71e-07 8.04e-03  -4.9 2.41e-03    -  1.00e+00 1.00e+00h  1
  18  1.5126320e+00 2.66e-02 2.73e+00  -4.4 2.22e+01    -  1.00e+00 3.91e-02f  1
  19  1.5056162e+00 5.21e-04 5.88e-01  -6.3 1.50e-01  -2.0 1.00e+00 1.00e+00h  1
iter    objective    inf_pr   inf_du lg(mu)  ||d||  lg(rg) alpha_du alpha_pr  ls
  20  1.4785634e+00 4.81e-03 4.01e+01  -7.1 4.25e-01  -2.5 1.00e+00 9.37e-01h  1
  21  1.4777081e+00 4.80e-03 4.10e+01  -4.7 5.69e+00    -  4.93e-01 2.17e-03h  1
  22  1.4353816e+00 7.27e-03 3.68e+01  -5.9 7.92e-01    -  1.00e+00 1.00e+00h  1
  23  1.4212314e+00 1.29e-03 2.06e+01  -4.7 3.32e-01    -  1.00e+00 1.00e+00h  1
  24  1.4143741e+00 1.12e-03 1.76e+01  -4.3 4.83e-01  -3.0 1.00e+00 2.63e-01h  1
  25  1.4145294e+00 7.70e-08 1.97e-02  -6.2 1.88e-03    -  1.00e+00 1.00e+00h  1
  26  1.4144491e+00 3.99e-08 1.98e-02  -8.1 1.29e-03    -  1.00e+00 1.00e+00h  1
  27  1.4123108e+00 2.55e-05 1.06e-01  -8.5 6.94e+00    -  7.20e-01 5.08e-03f  1
  28  1.4112544e+00 2.97e-05 6.42e-01  -9.3 1.62e-01  -2.1 1.00e+00 1.28e-01h  1
  29  1.4077728e+00 1.06e-04 1.25e+00  -7.6 4.55e-01  -2.6 1.00e+00 1.57e-01h  1
iter    objective    inf_pr   inf_du lg(mu)  ||d||  lg(rg) alpha_du alpha_pr  ls
  30  1.4017944e+00 3.66e-04 4.29e+00  -5.0 7.30e+01    -  9.59e-02 1.91e-03f  1
  31  1.3951063e+00 8.43e-04 1.16e+01  -5.3 1.42e+01    -  9.42e-01 1.36e-02h  1
  32  1.3943489e+00 5.58e-06 4.52e+00  -5.9 2.13e-02  -1.3 1.00e+00 1.00e+00h  1
  33  1.3931795e+00 1.37e-05 2.71e+00  -7.6 7.19e-02  -1.8 1.00e+00 3.75e-01h  1
  34  1.3920352e+00 9.45e-06 3.06e+00  -6.8 2.64e-02  -1.4 1.00e+00 1.00e+00h  1
  35  1.3899286e+00 3.59e-05 1.81e+01  -7.3 8.04e-02  -1.8 1.00e+00 6.12e-01h  1
  36  1.3884124e+00 5.67e-05 2.40e+01  -5.3 4.54e+00    -  2.92e-01 8.97e-03h  1
  37  1.3875830e+00 2.17e-05 1.77e+01  -6.8 2.94e-02  -1.4 1.00e+00 7.18e-01h  1
  38  1.3872811e+00 7.65e-06 7.43e+00  -6.1 1.10e-02  -1.0 1.00e+00 6.79e-01h  1
  39  1.3860661e+00 1.15e-05 2.04e+00  -7.8 3.21e-02  -1.5 1.00e+00 8.81e-01h  1
iter    objective    inf_pr   inf_du lg(mu)  ||d||  lg(rg) alpha_du alpha_pr  ls
  40  1.3820810e+00 1.22e-04 1.18e+01  -8.0 9.74e-02  -1.9 1.00e+00 9.99e-01h  1
  41  1.3782583e+00 2.14e-04 2.00e+01  -6.8 2.88e-01  -2.4 1.00e+00 3.60e-01h  1
  42  1.3754136e+00 1.22e-04 1.28e+01  -5.8 1.11e-01  -2.0 1.00e+00 7.48e-01h  1
  43  1.3745025e+00 1.28e-04 1.40e+01  -6.0 1.27e+01    -  5.74e-01 2.08e-03h  1
  44  1.3744704e+00 9.59e-09 5.59e-02  -6.7 1.10e-03    -  1.00e+00 1.00e+00h  1
  45  1.3656500e+00 5.27e-04 1.25e+01  -4.6 1.58e+02    -  1.00e+00 1.36e-03f  1
  46  1.3475842e+00 2.30e-03 1.67e+01  -5.2 7.24e-01  -2.9 1.00e+00 6.22e-01h  1
  47  1.3389834e+00 2.25e-03 1.13e+01  -4.1 1.11e+00    -  1.00e+00 4.32e-01h  1
  48  1.3305777e+00 2.11e-03 1.04e+01  -4.4 1.06e+00    -  1.00e+00 3.88e-01h  1
  49  1.3233836e+00 1.78e-03 7.55e+00  -4.4 8.13e-01    -  1.00e+00 4.61e-01h  1
iter    objective    inf_pr   inf_du lg(mu)  ||d||  lg(rg) alpha_du alpha_pr  ls
  50  1.3235782e+00 5.76e-08 1.01e-02  -6.1 2.13e-03    -  1.00e+00 1.00e+00h  1
  51  1.3235251e+00 2.16e-08 1.32e-02  -7.9 1.06e-03    -  1.00e+00 1.00e+00h  1
  52  1.3227025e+00 5.14e-06 5.61e-03  -9.3 3.26e-01  -2.5 1.00e+00 5.13e-02f  1
  53  1.3216964e+00 1.24e-05 5.66e-02  -9.7 8.08e-01  -3.0 1.00e+00 3.05e-02h  1
  54  1.3187970e+00 7.76e-05 3.99e-01  -8.9 1.17e+01    -  1.00e+00 1.15e-02f  1
  55  1.3165668e+00 4.41e-05 1.27e+00  -6.3 1.03e-01  -2.1 1.00e+00 9.87e-01h  1
  56  1.3154624e+00 4.88e-05 1.26e+00  -7.4 3.05e-01  -2.6 1.00e+00 1.81e-01h  1
  57  1.3133699e+00 1.06e-04 2.15e+00  -6.9 1.10e+01    -  1.00e+00 1.19e-02h  1
  58  1.3083633e+00 3.05e-04 4.62e+00  -5.7 3.50e-01  -2.7 1.00e+00 8.49e-01h  1
  59  1.3076918e+00 1.77e-04 2.58e+00  -5.0 1.71e-01  -2.2 1.00e+00 4.43e-01h  1
iter    objective    inf_pr   inf_du lg(mu)  ||d||  lg(rg) alpha_du alpha_pr  ls
  60  1.3019437e+00 3.72e-04 1.14e+01  -5.4 3.52e-01  -2.7 1.00e+00 1.00e+00h  1
  61  1.2996412e+00 5.42e-05 4.64e+00  -6.3 1.34e-01  -2.3 1.00e+00 1.00e+00h  1
  62  1.2944860e+00 3.30e-04 7.36e+00  -7.2 1.32e+02    -  6.59e-02 2.45e-03f  1
  63  1.2875371e+00 9.45e-04 1.16e+01  -5.9 3.53e+01    -  4.09e-01 1.50e-02h  1
  64  1.2825449e+00 1.18e-03 1.10e+01  -4.6 2.01e+00  -3.7 1.00e+00 2.89e-01h  1
  65  1.2826488e+00 9.05e-08 3.62e-02  -5.6 3.53e-03    -  1.00e+00 1.00e+00h  1
  66  1.2824078e+00 6.00e-07 4.21e-02  -7.1 1.15e-01  -2.4 1.00e+00 8.31e-02h  1
  67  1.2815219e+00 1.10e-05 4.75e-01  -8.2 3.04e-01  -2.9 1.00e+00 1.99e-01h  1
  68  1.2810122e+00 1.14e-05 5.97e-01  -7.3 1.42e-01  -2.4 1.00e+00 3.65e-01h  1
  69  1.2805624e+00 1.71e-05 6.60e-01  -8.4 4.49e-01  -2.9 1.00e+00 1.43e-01h  1
iter    objective    inf_pr   inf_du lg(mu)  ||d||  lg(rg) alpha_du alpha_pr  ls
  70  1.2781275e+00 2.52e-04 3.27e+00  -4.4 3.62e+01    -  1.00e+00 1.20e-02f  1
  71  1.2773541e+00 3.61e-05 5.41e+00  -5.6 1.90e-01  -2.5 1.00e+00 9.87e-01h  1
  72  1.2718504e+00 1.82e-03 1.97e+01  -6.9 5.97e+01    -  1.15e-01 1.72e-02f  1
  73  1.2711952e+00 5.36e-05 1.81e+00  -5.0 1.64e-01  -2.5 1.00e+00 1.00e+00h  1
  74  1.2688109e+00 2.47e-04 1.12e+01  -5.6 4.31e-01  -3.0 1.00e+00 7.33e-01h  1
  75  1.2663068e+00 9.68e-04 2.25e+01  -4.3 5.31e+00    -  1.00e+00 1.24e-01h  1
  76  1.2640718e+00 2.22e-03 2.09e+01  -4.1 3.11e+00    -  1.00e+00 2.73e-01h  1
  77  1.2641334e+00 9.54e-08 3.17e-01  -5.8 3.68e-03    -  1.00e+00 1.00e+00h  1
  78  1.2629184e+00 1.61e-05 5.86e-01  -7.2 2.14e-01  -2.6 1.00e+00 1.25e-01f  1
  79  1.2619356e+00 1.98e-05 1.12e+00  -6.2 6.73e-02  -2.2 1.00e+00 4.65e-01h  1
iter    objective    inf_pr   inf_du lg(mu)  ||d||  lg(rg) alpha_du alpha_pr  ls
  80  1.2609252e+00 3.63e-05 5.02e+00  -6.3 3.25e+00    -  1.00e+00 4.08e-02h  1
  81  1.2587085e+00 1.36e-03 3.35e+01  -4.0 6.74e+00    -  1.00e+00 1.38e-01f  1
  82  1.2578309e+00 3.02e-05 1.61e+01  -5.0 1.30e-01  -2.6 1.00e+00 1.00e+00h  1
  83  1.2562348e+00 1.07e-04 8.25e+00  -6.2 3.86e-01  -3.1 1.00e+00 6.81e-01h  1
  84  1.2548366e+00 2.44e-04 2.48e+01  -6.3 1.04e+00  -3.6 7.82e-01 3.14e-01h  1
  85  1.2536162e+00 1.94e-04 4.69e+01  -5.6 4.51e-01  -3.2 1.00e+00 6.57e-01h  1
  86  1.2571263e+00 5.80e-04 5.23e+01  -3.7 5.39e+00    -  7.74e-01 2.03e-01f  1
  87  1.2616053e+00 9.66e-04 6.24e+00  -4.0 1.49e+00  -3.7 8.14e-01 1.00e+00h  1
  88  1.2585254e+00 1.37e-03 5.37e+00  -4.0 1.15e+00    -  1.00e+00 1.00e+00h  1
  89  1.2586258e+00 9.47e-08 8.74e-03  -4.0 3.36e-03    -  1.00e+00 1.00e+00h  1
iter    objective    inf_pr   inf_du lg(mu)  ||d||  lg(rg) alpha_du alpha_pr  ls
  90  1.2511788e+00 3.53e-03 6.04e+00  -4.9 4.27e+00    -  5.45e-01 3.67e-01f  1
  91  1.2480672e+00 1.06e-04 3.30e-02  -5.9 7.01e-02  -2.4 1.00e+00 1.00e+00h  1
  92  1.2453033e+00 1.26e-04 6.36e-01  -6.8 1.53e-01  -2.9 1.00e+00 6.22e-01h  1
  93  1.2448579e+00 3.45e-05 3.08e-01  -5.6 6.05e-02  -2.4 1.00e+00 7.56e-01h  1
  94  1.2446571e+00 7.47e-06 7.01e-01  -6.0 2.92e-02  -2.0 1.00e+00 8.05e-01h  1
  95  1.2444672e+00 4.76e-06 1.82e+00  -6.9 8.57e-02  -2.5 1.00e+00 4.67e-01h  1
  96  1.2438324e+00 5.80e-05 2.02e+01  -6.3 2.38e+01    -  7.75e-01 1.38e-02h  1
  97  1.2438182e+00 2.77e-09 4.03e-04  -7.2 3.98e-04    -  1.00e+00 1.00e+00h  1
  98  1.2436669e+00 1.55e-06 1.07e-03  -6.8 2.62e+00    -  1.00e+00 1.85e-02f  1
  99  1.2431835e+00 6.37e-05 6.56e-03  -8.2 2.20e+01    -  1.02e-01 1.67e-02h  1
iter    objective    inf_pr   inf_du lg(mu)  ||d||  lg(rg) alpha_du alpha_pr  ls
 100  1.2428070e+00 1.03e-04 1.91e-02  -6.3 2.45e+01    -  9.24e-01 2.11e-02h  1
 101  1.2425808e+00 2.66e-05 4.19e-01  -6.2 2.30e-01  -3.4 1.00e+00 9.35e-01h  1
 102  1.2424000e+00 3.27e-05 1.99e-01  -6.7 6.64e-01  -3.9 1.00e+00 3.01e-01h  1
 103  1.2421098e+00 7.67e-05 3.94e-01  -6.5 1.41e+01    -  1.00e+00 4.13e-02h  1
 104  1.2419597e+00 1.76e-05 6.07e-01  -6.7 2.03e-01  -3.5 1.00e+00 1.00e+00h  1
 105  1.2417794e+00 6.29e-05 3.25e+00  -7.6 6.58e-01  -4.0 9.04e-01 4.73e-01h  1
 106  1.2413676e+00 5.76e-04 1.49e+01  -5.1 4.31e+00    -  4.29e-01 2.01e-01h  1
 107  1.2414660e+00 1.65e-04 3.03e+00  -5.6 5.98e-01  -4.4 1.00e+00 8.48e-01h  1
 108  1.2414327e+00 1.64e-04 2.87e+00  -5.3 1.41e+00  -4.9 1.00e+00 3.71e-01h  1
 109  1.2411964e+00 3.11e-04 3.56e+00  -5.6 1.91e+00    -  1.00e+00 3.87e-01h  1
iter    objective    inf_pr   inf_du lg(mu)  ||d||  lg(rg) alpha_du alpha_pr  ls
 110  1.2408385e+00 3.10e-03 8.68e+00  -5.5 2.01e+01    -  1.93e-01 7.86e-02h  1
 111  1.2416133e+00 2.91e-03 3.98e+00  -4.9 1.51e+00    -  1.00e+00 1.00e+00h  1
 112  1.2412146e+00 3.36e-03 4.52e+00  -5.1 7.22e+00    -  3.81e-01 1.70e-01h  1
 113  1.2414985e+00 1.65e-04 6.69e-01  -5.1 5.77e-01  -4.1 1.00e+00 1.00e+00h  1
 114  1.2413324e+00 5.06e-04 3.31e-01  -5.1 1.29e+00    -  9.24e-01 6.83e-01h  1
 115  1.2414793e+00 1.13e-04 2.31e-01  -5.1 4.43e-01  -4.5 1.00e+00 1.00e+00f  1
 116  1.2415317e+00 5.87e-05 1.92e-01  -5.1 4.58e-01    -  1.00e+00 1.00e+00h  1
 117  1.2406186e+00 1.11e-05 1.92e-01  -6.5 6.37e-02  -3.2 1.00e+00 9.99e-01h  1
 118  1.2405485e+00 2.65e-04 3.90e-01  -5.6 6.50e+00    -  1.00e+00 8.11e-02h  1
 119  1.2411028e+00 4.95e-04 1.10e+00  -5.2 1.05e+00    -  1.00e+00 1.00e+00h  1
iter    objective    inf_pr   inf_du lg(mu)  ||d||  lg(rg) alpha_du alpha_pr  ls
 120  1.2410107e+00 1.38e-06 1.37e+00  -5.3 4.23e-02  -2.8 1.00e+00 1.00e+00h  1
 121  1.2405272e+00 1.18e-04 2.50e+00  -6.1 5.42e-01    -  6.65e-01 6.23e-01h  1
 122  1.2403336e+00 1.18e-06 1.00e-01  -6.7 3.85e-02  -3.3 1.00e+00 9.97e-01h  1
 123  1.2403027e+00 9.68e-07 8.97e-02  -8.1 8.19e-02  -3.7 1.00e+00 6.95e-01h  1
 124  1.2402864e+00 2.90e-06 8.31e-02  -8.7 2.15e-01  -4.2 1.00e+00 4.83e-01h  1
 125  1.2402772e+00 1.48e-06 5.75e-02  -7.7 8.11e-02  -3.8 1.00e+00 1.00e+00h  1
 126  1.2402690e+00 2.61e-06 6.23e-02  -7.2 3.12e+00    -  1.00e+00 3.52e-02h  1
 127  1.2402413e+00 4.17e-05 3.04e-01  -7.3 5.30e+00    -  1.00e+00 1.07e-01h  1
 128  1.2402436e+00 1.76e-07 1.65e-01  -7.7 1.62e-02  -3.4 1.00e+00 1.00e+00h  1
 129  1.2402306e+00 9.61e-06 2.49e-01  -8.3 3.41e+00    -  5.27e-01 6.09e-02h  1
iter    objective    inf_pr   inf_du lg(mu)  ||d||  lg(rg) alpha_du alpha_pr  ls
 130  1.2402246e+00 1.18e-05 2.64e-01  -8.2 1.29e+00    -  8.98e-01 1.20e-01h  1
 131  1.2402187e+00 1.59e-05 6.19e-02  -7.7 1.45e-01  -4.8 1.00e+00 1.00e+00h  1
 132  1.2402052e+00 1.80e-04 2.75e-01  -7.2 5.25e-01  -5.3 1.00e+00 9.40e-01h  1
 133  1.2402044e+00 1.10e-04 1.85e-01  -7.0 5.67e-01    -  1.00e+00 4.29e-01h  1
 134  1.2402532e+00 3.56e-04 1.87e-01  -6.3 1.19e+00  -5.7 1.00e+00 1.00e+00h  1
 135  1.2402763e+00 4.84e-07 2.40e-01  -6.4 2.98e-02  -2.6 1.00e+00 1.00e+00h  1
 136  1.2402443e+00 7.98e-05 1.90e-01  -6.4 6.40e-01    -  9.74e-01 6.66e-01h  1
 137  1.2402548e+00 2.46e-07 4.49e-02  -6.4 7.72e-02  -3.1 1.00e+00 1.00e+00h  1
 138  1.2402358e+00 2.03e-04 3.35e-02  -6.4 2.24e+00    -  1.00e+00 2.68e-01h  1
 139  1.2402333e+00 2.21e-07 1.62e-02  -6.5 5.14e-02  -3.6 1.00e+00 1.00e+00h  1
iter    objective    inf_pr   inf_du lg(mu)  ||d||  lg(rg) alpha_du alpha_pr  ls
 140  1.2402035e+00 9.45e-07 2.49e-02  -7.0 3.05e-02  -4.0 1.00e+00 1.00e+00h  1
 141  1.2401909e+00 1.37e-07 1.61e-02  -8.2 1.41e-02  -3.6 1.00e+00 9.67e-01h  1
 142  1.2401892e+00 2.30e-07 9.96e-03  -9.5 3.83e-02  -4.1 1.00e+00 5.70e-01h  1
 143  1.2401893e+00 9.49e-08 4.14e-03  -8.0 1.07e-02  -3.7 1.00e+00 7.16e-01h  1
 144  1.2401873e+00 6.23e-07 9.02e-03  -9.3 2.37e-02  -4.1 1.00e+00 1.00e+00h  1
 145  1.2401870e+00 6.62e-07 1.73e-02  -7.7 7.38e-01    -  1.00e+00 4.33e-02h  1
 146  1.2401849e+00 1.22e-05 1.30e-01  -7.5 5.13e-01    -  1.00e+00 3.45e-01h  1
 147  1.2401986e+00 4.45e-05 3.76e-01  -6.8 7.15e-01    -  1.00e+00 1.00e+00h  1
 148  1.2401947e+00 3.15e-05 4.48e-01  -6.9 1.12e+00    -  1.00e+00 4.11e-01h  1
 149  1.2401952e+00 1.58e-05 2.21e-01  -6.9 1.15e-01  -3.3 1.00e+00 5.00e-01f  2
iter    objective    inf_pr   inf_du lg(mu)  ||d||  lg(rg) alpha_du alpha_pr  ls
 150  1.2401955e+00 3.00e-08 1.61e-02  -6.9 9.34e-03  -3.8 1.00e+00 1.00e+00h  1
 151  1.2401794e+00 3.83e-07 2.01e-02  -7.8 2.96e-02  -4.3 1.00e+00 1.00e+00h  1
 152  1.2401774e+00 2.65e-09 5.73e-03  -9.2 2.74e-03  -2.9 1.00e+00 9.96e-01h  1
 153  1.2401750e+00 8.84e-06 6.18e-02 -10.8 2.25e+00    -  3.55e-01 1.66e-01h  1
 154  1.2401739e+00 1.10e-05 1.07e-01  -7.4 6.69e+00    -  1.00e+00 2.02e-02h  1
 155  1.2401771e+00 2.39e-08 1.26e-06  -7.6 8.78e-03  -3.9 1.00e+00 1.00e+00h  1
 156  1.2401747e+00 2.92e-05 6.49e-02  -7.4 2.13e+00    -  1.00e+00 3.35e-01h  1
 157  1.2401750e+00 4.31e-07 1.18e-02  -7.5 2.46e-02  -4.4 1.00e+00 1.00e+00h  1
 158  1.2401735e+00 5.45e-06 4.88e-02  -7.9 8.56e-01    -  1.00e+00 2.81e-01h  1
 159  1.2401822e+00 6.88e-05 1.28e-01  -6.6 2.49e+00    -  1.00e+00 3.21e-01h  1
iter    objective    inf_pr   inf_du lg(mu)  ||d||  lg(rg) alpha_du alpha_pr  ls
 160  1.2401909e+00 3.14e-05 1.38e-01  -6.8 4.20e-01    -  1.00e+00 1.00e+00h  1
 161  1.2401956e+00 5.64e-07 1.45e-02  -6.8 3.41e-02  -3.9 1.00e+00 1.00e+00h  1
 162  1.2401835e+00 7.57e-05 1.48e-01  -6.8 8.88e-01    -  4.06e-01 6.32e-01h  1
 163  1.2401949e+00 2.08e-07 3.39e-02  -6.8 8.64e-02  -3.5 1.00e+00 1.00e+00h  1
 164  1.2401946e+00 1.26e-08 1.56e-02  -6.8 8.45e-03  -3.1 1.00e+00 1.00e+00h  1
 165  1.2401770e+00 8.89e-05 1.10e+00  -6.8 2.18e+00    -  5.44e-01 3.45e-01h  1
 166  1.2401821e+00 6.67e-05 8.33e-01  -6.8 6.12e-02  -4.0 1.00e+00 2.50e-01h  3
 167  1.2401929e+00 4.62e-06 3.55e-02  -6.8 1.31e-01  -4.5 6.99e-01 1.00e+00h  1
 168  1.2401945e+00 4.81e-10 4.90e-06  -6.8 9.78e-04  -2.3 1.00e+00 1.00e+00h  1
 169  1.2401753e+00 1.59e-08 1.73e-02  -8.7 4.90e-03  -2.8 1.00e+00 9.92e-01h  1
iter    objective    inf_pr   inf_du lg(mu)  ||d||  lg(rg) alpha_du alpha_pr  ls
 170  1.2401741e+00 1.71e-08 6.81e-06 -10.2 9.92e-03  -3.2 1.00e+00 6.35e-01h  1
 171  1.2401735e+00 3.29e-08 1.99e-03 -11.0 2.46e-02  -3.7 1.00e+00 3.97e-01h  1
 172  1.2401731e+00 5.21e-08 1.86e-03 -10.8 4.46e-02  -4.2 1.00e+00 1.54e-01h  1
 173  1.2401720e+00 3.06e-07 2.06e-03  -8.8 2.62e-01    -  1.00e+00 9.48e-02h  1
 174  1.2401717e+00 2.82e-08 1.05e-03  -9.5 5.52e-03  -3.3 1.00e+00 9.56e-01h  1
 175  1.2401711e+00 9.42e-07 2.80e-03  -7.4 1.77e-01    -  1.00e+00 2.26e-01h  1
 176  1.2401700e+00 5.74e-08 1.12e-03  -8.7 1.33e-02  -3.8 1.00e+00 1.00e+00h  1
 177  1.2401697e+00 1.00e-08 2.04e-06 -10.0 4.92e-03  -3.4 1.00e+00 1.00e+00h  1
 178  1.2401695e+00 1.33e-08 7.40e-06 -10.3 1.17e-02  -3.9 1.00e+00 3.38e-01h  1
 179  1.2401693e+00 5.63e-08 6.87e-05 -11.0 1.93e-01    -  9.10e-01 6.87e-02h  1
iter    objective    inf_pr   inf_du lg(mu)  ||d||  lg(rg) alpha_du alpha_pr  ls
 180  1.2401690e+00 4.54e-08 6.41e-05 -11.0 1.32e-02  -3.9 1.00e+00 1.00e+00h  1
 181  1.2401687e+00 1.13e-07 7.07e-05  -9.3 3.30e-02  -4.4 1.00e+00 5.88e-01h  1
 182  1.2401682e+00 5.53e-07 8.36e-05  -9.0 1.82e-01    -  1.00e+00 2.51e-01h  1
 183  1.2401680e+00 2.17e-06 3.10e-04  -7.9 3.33e-01    -  1.00e+00 3.24e-01h  1
 184  1.2401712e+00 1.67e-05 7.99e-04  -7.3 3.45e-01    -  1.00e+00 8.04e-01h  1
 185  1.2401726e+00 1.28e-07 2.72e-03  -7.4 5.73e-02  -3.1 1.00e+00 1.00e+00h  1
 186  1.2401696e+00 1.81e-05 4.48e-02  -7.4 2.74e-01    -  9.93e-01 9.15e-01h  1
 187  1.2401700e+00 1.59e-05 3.95e-02  -7.4 1.14e-01  -3.5 1.00e+00 1.25e-01f  4
 188  1.2401730e+00 1.93e-08 2.63e-03  -7.4 4.18e-03  -3.1 1.00e+00 1.00e+00h  1
 189  1.2401696e+00 5.10e-06 7.32e-04  -7.4 7.85e-02    -  9.12e-01 1.00e+00h  1
iter    objective    inf_pr   inf_du lg(mu)  ||d||  lg(rg) alpha_du alpha_pr  ls
 190  1.2401713e+00 1.48e-09 7.34e-07  -7.4 2.49e-03  -3.6 1.00e+00 1.00e+00h  1
 191  1.2401668e+00 1.19e-06 2.52e-03  -9.5 1.56e-01    -  8.93e-01 7.65e-01h  1
 192  1.2401655e+00 9.67e-06 1.95e-03  -9.5 6.74e-01    -  5.93e-01 3.63e-01h  1
 193  1.2401710e+00 2.06e-05 5.62e-03  -7.3 2.88e-01    -  1.00e+00 1.00e+00h  1
 194  1.2401697e+00 3.30e-06 2.51e-02  -7.4 1.43e-01    -  1.00e+00 1.00e+00h  1
 195  1.2401706e+00 3.74e-08 2.69e-03  -7.4 1.35e-02  -4.1 1.00e+00 1.00e+00h  1
 196  1.2401706e+00 3.96e-09 8.79e-07  -7.4 4.28e-03  -3.7 1.00e+00 1.00e+00h  1
 197  1.2401665e+00 1.87e-06 1.74e-03  -9.1 2.11e-01    -  7.96e-01 6.65e-01h  1
 198  1.2401657e+00 1.04e-05 6.96e-04  -8.0 5.57e-01    -  1.00e+00 5.69e-01h  1
 199  1.2401647e+00 7.37e-06 6.27e-04  -8.7 3.47e-01    -  8.81e-01 4.40e-01h  1
iter    objective    inf_pr   inf_du lg(mu)  ||d||  lg(rg) alpha_du alpha_pr  ls
 200  1.2401641e+00 3.52e-06 6.16e-04 -11.0 4.50e-02    -  7.69e-01 5.14e-01h  1
 201  1.2401639e+00 8.98e-07 1.17e-04  -9.9 3.05e-02    -  1.00e+00 7.39e-01h  1
 202  1.2401639e+00 1.09e-07 1.85e-05 -10.5 1.68e-02    -  1.00e+00 8.75e-01h  1
 203  1.2401640e+00 8.81e-10 8.94e-08 -11.0 1.75e-03  -4.3 1.00e+00 1.00e+00h  1
 204  1.2401640e+00 1.49e-13 2.32e-07 -11.0 2.84e-05  -2.1 1.00e+00 1.00e+00h  1
 205  1.2401639e+00 4.01e-09 1.17e-05 -10.6 1.70e-01    -  1.00e+00 3.49e-02h  1
 206  1.2401639e+00 6.61e-13 3.85e-07 -11.0 1.41e-04  -2.6 1.00e+00 1.00e+00h  1
 207  1.2401639e+00 3.48e-12 1.32e-07 -11.0 1.07e-04  -3.0 1.00e+00 1.00e+00h  1
 208  1.2401639e+00 1.68e-09 1.82e-07 -11.0 9.08e-02    -  1.00e+00 5.03e-02h  1
 209  1.2401639e+00 1.81e-11 9.62e-08 -11.0 3.19e-04  -3.5 1.00e+00 1.00e+00h  1
iter    objective    inf_pr   inf_du lg(mu)  ||d||  lg(rg) alpha_du alpha_pr  ls
 210  1.2401639e+00 2.40e-12 9.48e-08 -11.0 1.17e-04  -3.1 1.00e+00 1.00e+00h  1
 211  1.2401639e+00 1.14e-09 2.60e-07 -11.0 1.30e-01    -  1.00e+00 2.92e-02h  1
 212  1.2401639e+00 4.09e-08 4.05e-05 -11.0 1.40e+00    -  3.25e-01 2.12e-02h  1
 213  1.2401639e+00 5.80e-08 8.08e-05  -9.0 1.48e-01    -  1.00e+00 2.33e-01f  1
 214  1.2401640e+00 6.55e-10 4.38e-06  -9.2 3.73e-03  -3.1 1.00e+00 1.00e+00h  1
 215  1.2401640e+00 5.45e-07 1.32e-04  -9.2 1.24e-01    -  1.00e+00 1.00e+00h  1
 216  1.2401638e+00 1.12e-05 1.19e-03  -9.2 4.56e-01    -  5.08e-01 9.59e-01h  1
 217  1.2401639e+00 9.88e-06 1.05e-03  -9.9 9.46e-03  -3.7 1.00e+00 1.22e-01h  4
 218  1.2401648e+00 7.93e-08 5.34e-05  -8.4 1.69e-02  -4.1 1.00e+00 1.00e+00h  1
 219  1.2401647e+00 9.15e-09 1.44e-05  -8.5 6.12e-03  -3.7 1.00e+00 1.00e+00h  1
iter    objective    inf_pr   inf_du lg(mu)  ||d||  lg(rg) alpha_du alpha_pr  ls
 220  1.2401646e+00 5.24e-08 1.01e-05  -8.5 1.31e-02  -4.2 1.00e+00 1.00e+00h  1
 221  1.2401646e+00 6.60e-09 7.33e-07  -8.5 4.37e-03  -3.8 1.00e+00 1.00e+00h  1
 222  1.2401643e+00 1.99e-06 1.69e-04  -8.5 1.78e-01    -  6.51e-01 1.00e+00h  1
 223  1.2401640e+00 1.36e-05 5.00e-04  -8.5 2.75e-01    -  1.00e+00 1.00e+00h  1
 224  1.2401625e+00 8.77e-06 6.32e-05  -8.5 2.00e-01    -  1.00e+00 1.00e+00h  1
 225  1.2401643e+00 2.83e-08 3.64e-05  -8.5 1.47e-02    -  1.00e+00 1.00e+00h  1
 226  1.2401642e+00 5.13e-07 1.64e-04  -8.6 6.74e-02    -  1.00e+00 1.00e+00h  1
 227  1.2401643e+00 6.10e-11 3.17e-07  -8.6 2.89e-04  -3.0 1.00e+00 1.00e+00h  1
 228  1.2401643e+00 3.91e-10 2.78e-07  -8.6 8.03e-04  -3.5 1.00e+00 1.00e+00h  1
 229  1.2401642e+00 1.61e-09 3.81e-06  -8.6 1.70e-03  -3.9 1.00e+00 1.00e+00h  1
iter    objective    inf_pr   inf_du lg(mu)  ||d||  lg(rg) alpha_du alpha_pr  ls
 230  1.2401642e+00 1.61e-10 1.24e-06  -8.6 5.61e-04  -3.5 1.00e+00 1.00e+00h  1
 231  1.2401642e+00 4.67e-08 5.02e-05  -8.6 1.75e-02    -  1.00e+00 1.00e+00h  1
 232  1.2401642e+00 9.00e-11 1.92e-06  -8.6 8.27e-04  -4.5 1.00e+00 1.00e+00h  1
 233  1.2401642e+00 8.13e-08 4.87e-05  -8.6 2.49e-02    -  1.00e+00 1.00e+00h  1
 234  1.2401642e+00 5.11e-07 2.47e-04  -8.6 8.53e-02    -  1.00e+00 1.00e+00h  1
 235  1.2401642e+00 4.18e-07 2.21e-04  -8.6 4.26e-02    -  1.00e+00 1.00e+00h  1
 236  1.2401642e+00 1.85e-07 6.23e-05  -8.6 4.41e-02    -  1.00e+00 1.00e+00h  1
 237  1.2401642e+00 2.58e-08 3.01e-05  -8.6 2.39e-02    -  1.00e+00 1.00e+00h  1
 238  1.2401642e+00 5.34e-12 8.68e-07  -8.6 8.86e-05  -3.1 1.00e+00 1.00e+00h  1
 239  1.2401642e+00 3.17e-11 8.56e-08  -8.6 2.38e-04  -3.6 1.00e+00 1.00e+00h  1
iter    objective    inf_pr   inf_du lg(mu)  ||d||  lg(rg) alpha_du alpha_pr  ls
 240  1.2401642e+00 2.32e-08 2.56e-05  -8.6 3.26e-02    -  1.00e+00 1.00e+00h  1
 241  1.2401641e+00 1.30e-05 1.14e-03  -8.6 5.91e-01    -  1.00e+00 1.00e+00h  1
 242  1.2401641e+00 1.26e-05 1.11e-03  -8.6 5.74e-03  -3.7 1.00e+00 3.12e-02h  6
 243  1.2401642e+00 1.25e-05 1.10e-03  -8.6 2.38e-03  -3.2 1.00e+00 7.81e-03h  8
 244  1.2401637e+00 4.40e-06 1.21e-04  -8.6 2.87e-01    -  4.35e-01 9.05e-01h  1
 245  1.2401639e+00 9.31e-09 1.23e-05  -9.6 7.23e-03  -4.2 1.00e+00 1.00e+00h  1
 246  1.2401639e+00 1.10e-09 3.00e-06 -10.7 2.17e-03  -3.8 1.00e+00 9.84e-01h  1
 247  1.2401639e+00 1.41e-10 3.77e-07 -11.0 8.06e-04  -3.3 1.00e+00 1.00e+00h  1
 248  1.2401639e+00 1.81e-09 3.19e-06 -10.7 1.22e-01    -  1.00e+00 4.23e-02h  1
 249  1.2401638e+00 1.78e-08 8.51e-06 -11.0 1.31e-01    -  1.00e+00 8.61e-02h  1
iter    objective    inf_pr   inf_du lg(mu)  ||d||  lg(rg) alpha_du alpha_pr  ls
 250  1.2401639e+00 3.84e-08 1.79e-05  -9.3 3.27e-02    -  1.00e+00 5.83e-01h  1
 251  1.2401639e+00 2.13e-09 5.41e-06  -9.4 8.49e-03  -3.8 1.00e+00 1.00e+00h  1
 252  1.2401639e+00 1.40e-08 6.78e-08  -9.4 2.91e-02    -  1.00e+00 3.33e-01h  2
 253  1.2401639e+00 1.13e-11 2.82e-07  -9.4 2.24e-04  -3.4 1.00e+00 1.00e+00h  1
 254  1.2401638e+00 5.01e-09 4.35e-08 -11.0 1.27e-02    -  9.56e-01 6.02e-01h  1
 255  1.2401638e+00 1.96e-08 5.41e-08  -9.9 1.78e-02    -  1.00e+00 8.56e-01h  1
 256  1.2401638e+00 5.03e-07 2.19e-04  -9.9 1.10e-01    -  1.00e+00 9.23e-01f  1
 257  1.2401638e+00 2.72e-07 4.61e-04  -9.9 3.69e-02    -  1.00e+00 1.00e+00h  1
 258  1.2401640e+00 4.50e-07 6.37e-04  -8.9 8.23e-02    -  1.00e+00 1.00e+00h  1
 259  1.2401640e+00 6.54e-11 1.87e-07  -9.0 5.06e-04  -3.4 1.00e+00 1.00e+00h  1
iter    objective    inf_pr   inf_du lg(mu)  ||d||  lg(rg) alpha_du alpha_pr  ls
 260  1.2401640e+00 2.68e-10 2.24e-07  -9.0 1.15e-03  -3.9 1.00e+00 1.00e+00h  1
 261  1.2401640e+00 3.34e-11 1.32e-07  -9.0 4.02e-04  -3.5 1.00e+00 1.00e+00h  1
 262  1.2401640e+00 2.10e-10 1.82e-07  -9.0 9.80e-04  -4.0 1.00e+00 1.00e+00h  1
 263  1.2401640e+00 8.40e-10 7.45e-08  -9.0 1.96e-03  -4.4 1.00e+00 1.00e+00h  1
 264  1.2401640e+00 2.20e-08 5.74e-08  -9.0 1.99e-02    -  1.00e+00 1.00e+00h  1
 265  1.2401640e+00 1.63e-11 4.69e-08  -9.0 1.86e-04  -3.6 1.00e+00 1.00e+00h  1
 266  1.2401640e+00 2.46e-09 2.25e-08  -9.0 6.04e-03    -  1.00e+00 1.00e+00h  1
 267  1.2401640e+00 2.02e-08 4.25e-08  -9.0 1.69e-02    -  1.00e+00 1.00e+00h  1
 268  1.2401640e+00 1.29e-11 3.04e-08  -9.0 1.34e-04  -3.6 1.00e+00 1.00e+00h  1
 269  1.2401640e+00 5.62e-11 1.43e-07  -9.0 3.38e-04  -4.1 1.00e+00 1.00e+00h  1
iter    objective    inf_pr   inf_du lg(mu)  ||d||  lg(rg) alpha_du alpha_pr  ls
 270  1.2401640e+00 6.00e-12 2.57e-08  -9.0 1.25e-04  -3.7 1.00e+00 1.00e+00h  1
 271  1.2401640e+00 3.32e-11 2.41e-08  -9.0 3.50e-04  -4.2 1.00e+00 1.00e+00h  1
 272  1.2401640e+00 4.18e-12 2.71e-08  -9.0 1.29e-04  -3.7 1.00e+00 1.00e+00h  1
 273  1.2401640e+00 1.49e-08 4.15e-08  -9.0 1.54e-02    -  1.00e+00 1.00e+00h  1

Number of Iterations....: 273

                                   (scaled)                 (unscaled)
Objective...............:   1.2401639935048749e+00    1.2401639935048749e+00
Dual infeasibility......:   4.1506621507435976e-08    4.1506621507435976e-08
Constraint violation....:   1.4917667494544618e-08    1.4917667494544618e-08
Variable bound violation:   0.0000000000000000e+00    0.0000000000000000e+00
Complementarity.........:   1.1129325871038400e-09    1.1129325871038400e-09
Overall NLP error.......:   4.1506621507435976e-08    4.1506621507435976e-08


Number of objective function evaluations             = 298
Number of objective gradient evaluations             = 274
Number of equality constraint evaluations            = 298
Number of inequality constraint evaluations          = 0
Number of equality constraint Jacobian evaluations   = 274
Number of inequality constraint Jacobian evaluations = 0
Number of Lagrangian Hessian evaluations             = 0
Total seconds in IPOPT                               = 478.816

EXIT: Solved To Acceptable Level.
